NAME : tiny-cvrp
COMMENT : tiny sanity example from the assignment (known cost about 80.64)
TYPE : CVRP
DIMENSION : 5
EDGE_WEIGHT_TYPE : EUC_2D
CAPACITY : 10
VEHICLES : 4
NODE_COORD_SECTION
1 0 0
2 10 0
3 20 0
4 20 10
5 10 10
DEMAND_SECTION
1 0
2 2
3 3
4 5
5 5
DEPOT_SECTION
1
-1
EOF
